%BLOCK lattice_cart
 10.183200    0.000000    0.000000
  0.000000   14.108000    0.000000
  0.000000    0.000000   16.855801
%ENDBLOCK lattice_cart
%BLOCK positions_frac
H    0.4715226    0.6126277    0.9393398
H    0.0284774    0.6126277    0.4393398
H    0.9715226    0.8873723    0.9393398
H    0.5284774    0.8873723    0.4393398
H    0.5284774    0.3873723    0.0606602
H    0.9715226    0.3873723    0.5606602
H    0.0284774    0.1126277    0.0606602
H    0.4715226    0.1126277    0.5606602
H    0.4826827    0.6336532    0.0382267
H    0.0173173    0.6336532    0.5382267
H    0.9826827    0.8663468    0.0382267
H    0.5173173    0.8663468    0.5382267
H    0.5173173    0.3663468    0.9617733
H    0.9826827    0.3663468    0.4617733
H    0.0173173    0.1336532    0.9617733
H    0.4826827    0.1336532    0.4617733
H    0.3355998    0.6143842    0.9952145
H    0.1644002    0.6143842    0.4952145
H    0.8355998    0.8856158    0.9952145
H    0.6644002    0.8856158    0.4952145
H    0.6644002    0.3856158    0.0047855
H    0.8355998    0.3856158    0.5047855
H    0.1644002    0.1143842    0.0047855
H    0.3355998    0.1143842    0.5047855
H    0.3550948    0.7621341    0.9218007
H    0.1449052    0.7621341    0.4218006
H    0.8550948    0.7378659    0.9218007
H    0.6449052    0.7378659    0.4218006
H    0.6449052    0.2378659    0.0781993
H    0.8550948    0.2378659    0.5781993
H    0.1449052    0.2621341    0.0781993
H    0.3550948    0.2621341    0.5781993
H    0.5070854    0.7825682    0.9732713
H    0.9929146    0.7825682    0.4732714
H    0.0070854    0.7174318    0.9732713
H    0.4929146    0.7174318    0.4732714
H    0.4929146    0.2174318    0.0267287
H    0.0070854    0.2174318    0.5267287
H    0.9929146    0.2825682    0.0267287
H    0.5070854    0.2825682    0.5267287
H    0.3564820    0.7779912    0.0269708
H    0.1435180    0.7779912    0.5269708
H    0.8564820    0.7220088    0.0269708
H    0.6435180    0.7220088    0.5269708
H    0.6435180    0.2220088    0.9730292
H    0.8564820    0.2220088    0.4730292
H    0.1435180    0.2779912    0.9730292
H    0.3564820    0.2779912    0.4730292
H    0.5032123    0.5210347    0.2803721
H    0.9967877    0.5210347    0.7803721
H    0.0032123    0.9789653    0.2803721
H    0.4967877    0.9789653    0.7803721
H    0.4967877    0.4789653    0.7196279
H    0.0032123    0.4789653    0.2196279
H    0.9967877    0.0210347    0.7196279
H    0.5032123    0.0210347    0.2196279
C    0.4104711    0.7495248    0.9761562
C    0.0895289    0.7495248    0.4761562
C    0.9104711    0.7504752    0.9761562
C    0.5895289    0.7504752    0.4761562
C    0.5895289    0.2504752    0.0238438
C    0.9104711    0.2504752    0.5238438
C    0.0895289    0.2495248    0.0238438
C    0.4104711    0.2495248    0.5238438
N    0.4274545    0.6456362    0.9876423
N    0.0725455    0.6456362    0.4876423
N    0.9274545    0.8543638    0.9876423
N    0.5725455    0.8543638    0.4876423
N    0.5725455    0.3543638    0.0123577
N    0.9274545    0.3543638    0.5123577
N    0.0725455    0.1456362    0.0123577
N    0.4274545    0.1456362    0.5123577
O    0.3237075    0.3489742    0.1672317
O    0.1762925    0.3489742    0.6672317
O    0.8237075    0.1510258    0.1672317
O    0.6762925    0.1510258    0.6672317
O    0.6762925    0.6510258    0.8327683
O    0.8237075    0.6510258    0.3327683
O    0.1762925    0.8489742    0.8327683
O    0.3237075    0.8489742    0.3327683
O    0.0860231    0.3503477    0.3647845
O    0.4139768    0.3503477    0.8647845
O    0.5860232    0.1496523    0.3647845
O    0.9139768    0.1496523    0.8647845
O    0.9139768    0.6496523    0.6352155
O    0.5860232    0.6496523    0.1352155
O    0.4139768    0.8503477    0.6352155
O    0.0860231    0.8503477    0.1352155
O    0.4070635    0.5163974    0.2864585
O    0.0929365    0.5163974    0.7864585
O    0.9070635    0.9836026    0.2864585
O    0.5929365    0.9836026    0.7864585
O    0.5929365    0.4836026    0.7135415
O    0.9070635    0.4836026    0.2135415
O    0.0929365    0.0163975    0.7135415
O    0.4070635    0.0163975    0.2135415
O    0.3328706    0.1766251    0.1396691
O    0.1671294    0.1766251    0.6396691
O    0.8328706    0.3233749    0.1396691
O    0.6671294    0.3233749    0.6396691
O    0.6671294    0.8233749    0.8603309
O    0.8328706    0.8233749    0.3603309
O    0.1671294    0.6766251    0.8603309
O    0.3328706    0.6766251    0.3603309
O    0.2301371    0.4854424    0.4014852
O    0.2698629    0.4854424    0.9014852
O    0.7301371    0.0145576    0.4014852
O    0.7698629    0.0145576    0.9014852
O    0.7698629    0.5145576    0.5985148
O    0.7301371    0.5145576    0.0985148
O    0.2698629    0.9854424    0.5985148
O    0.2301371    0.9854424    0.0985148
O    0.1683990    0.4611085    0.2553235
O    0.3316010    0.4611085    0.7553235
O    0.6683990    0.0388915    0.2553235
O    0.8316010    0.0388915    0.7553235
O    0.8316010    0.5388915    0.7446765
O    0.6683990    0.5388915    0.2446765
O    0.3316010    0.9611085    0.7446765
O    0.1683990    0.9611085    0.2446765
O    0.4630327    0.4797434    0.5830619
O    0.0369673    0.4797434    0.0830619
O    0.9630327    0.0202566    0.5830619
O    0.5369673    0.0202566    0.0830619
O    0.5369673    0.5202566    0.4169381
O    0.9630327    0.5202566    0.9169381
O    0.0369673    0.9797434    0.4169381
O    0.4630327    0.9797434    0.9169381
O    0.4367399    0.6498346    0.6290873
O    0.0632601    0.6498346    0.1290873
O    0.9367399    0.8501654    0.6290873
O    0.5632601    0.8501654    0.1290873
O    0.5632601    0.3501654    0.3709127
O    0.9367399    0.3501654    0.8709127
O    0.0632601    0.1498346    0.3709127
O    0.4367399    0.1498346    0.8709127
O    0.3446046    0.6003488    0.4973738
O    0.1553954    0.6003488    0.9973738
O    0.8446046    0.8996512    0.4973738
O    0.6553954    0.8996512    0.9973738
O    0.6553954    0.3996512    0.5026262
O    0.8446046    0.3996512    0.0026262
O    0.1553954    0.1003487    0.5026262
O    0.3446046    0.1003487    0.0026262
O    0.2387252    0.5428014    0.6208041
O    0.2612748    0.5428014    0.1208041
O    0.7387252    0.9571986    0.6208041
O    0.7612748    0.9571986    0.1208041
O    0.7612748    0.4571986    0.3791959
O    0.7387252    0.4571986    0.8791959
O    0.2612748    0.0428014    0.3791959
O    0.2387252    0.0428014    0.8791959
O    0.2717199    0.2333569    0.2781329
O    0.2282801    0.2333569    0.7781329
O    0.7717199    0.2666431    0.2781329
O    0.7282801    0.2666431    0.7781329
O    0.7282801    0.7666431    0.7218671
O    0.7717199    0.7666431    0.2218671
O    0.2282801    0.7333569    0.7218671
O    0.2717199    0.7333569    0.2218671
O    0.0002513    0.5179076    0.3556291
O    0.4997487    0.5179076    0.8556291
O    0.5002512    0.9820924    0.3556291
O    0.9997488    0.9820924    0.8556291
O    0.9997488    0.4820924    0.6443709
O    0.5002512    0.4820924    0.1443709
O    0.4997487    0.0179076    0.6443709
O    0.0002513    0.0179076    0.1443709
O    0.5037957    0.2503935    0.2274888
O    0.9962043    0.2503935    0.7274888
O    0.0037957    0.2496065    0.2274888
O    0.4962043    0.2496065    0.7274888
O    0.4962043    0.7496065    0.7725112
O    0.0037957    0.7496065    0.2725112
O    0.9962043    0.7503935    0.7725112
O    0.5037957    0.7503935    0.2725112
Ga   0.3310612    0.4712431    0.1968867
Ga   0.1689388    0.4712431    0.6968867
Ga   0.8310612    0.0287569    0.1968867
Ga   0.6689388    0.0287569    0.6968867
Ga   0.6689388    0.5287569    0.8031133
Ga   0.8310612    0.5287569    0.3031133
Ga   0.1689388    0.9712431    0.8031133
Ga   0.3310612    0.9712431    0.3031133
Ga   0.3734239    0.5583389    0.3923486
Ga   0.1265761    0.5583389    0.8923486
Ga   0.8734239    0.9416611    0.3923486
Ga   0.6265761    0.9416611    0.8923486
Ga   0.6265761    0.4416611    0.6076514
Ga   0.8734239    0.4416611    0.1076514
Ga   0.1265761    0.0583389    0.6076514
Ga   0.3734239    0.0583389    0.1076514
Ga   0.1078528    0.2445601    0.3097185
Ga   0.3921472    0.2445601    0.8097185
Ga   0.6078528    0.2554399    0.3097185
Ga   0.8921472    0.2554399    0.8097185
Ga   0.8921472    0.7554399    0.6902815
Ga   0.6078528    0.7554399    0.1902815
Ga   0.3921472    0.7445601    0.6902815
Al   0.1078528    0.7445601    0.1902815
P    0.3572429    0.2520644    0.2033095
P    0.1427571    0.2520644    0.7033095
P    0.8572428    0.2479356    0.2033095
P    0.6427572    0.2479356    0.7033095
P    0.6427572    0.7479356    0.7966905
P    0.8572428    0.7479356    0.2966905
P    0.1427571    0.7520644    0.7966905
P    0.3572429    0.7520644    0.2966905
P    0.1225721    0.4554494    0.3426734
P    0.3774279    0.4554494    0.8426734
P    0.6225721    0.0445506    0.3426734
P    0.8774279    0.0445506    0.8426734
P    0.8774279    0.5445507    0.6573266
P    0.6225721    0.5445507    0.1573266
P    0.3774279    0.9554493    0.6573266
P    0.1225721    0.9554493    0.1573266
P    0.3721068    0.5665731    0.5825627
P    0.1278932    0.5665731    0.0825627
P    0.8721068    0.9334269    0.5825627
P    0.6278932    0.9334269    0.0825627
P    0.6278932    0.4334269    0.4174373
P    0.8721068    0.4334269    0.9174373
P    0.1278932    0.0665731    0.4174373
P    0.3721068    0.0665731    0.9174373
%ENDBLOCK positions_frac

kpoint_mp_grid 1 1 1

%block species_pot
  Ga 3|1.6|14|16|19|30U:40:31U:41:32(qc=7)
%endblock species_pot
